
Log started (V11.0.0) Sun Apr 13 14:12:21 2008

Tried aggregator 1 time.
Reduced MIP has 510 rows, 5001 columns, and 10010 nonzeros.
Presolve time =    0.03 sec.
Clique table members: 500.
MIP emphasis: balance optimality and feasibility.
MIP search method: dynamic search.
Parallel mode: none, using 1 thread.
Root relaxation solution time =    0.13 sec.

        Nodes                                         Cuts/
   Node  Left     Objective  IInf  Best Integer     Best Node    ItCnt     Gap

*     0+    0                        23774.0000      482.6692      603   97.97%
*     0+    0                          500.0000      482.6692      603    3.47%
      0     0      483.0000    20      500.0000      Fract: 9      615    3.40%
*     0+    0                          496.0000      483.0000      615    2.62%
      0     0      483.0000    22      496.0000     Covers: 1      618    2.62%
*     0+    0                          494.0000      483.0000      618    2.23%
      0     0      483.0000    26      494.0000     Covers: 2      628    2.23%
*     0+    0                          491.0000      483.0000      628    1.63%
*     0+    0                          489.0000      483.0000      628    1.23%

Repeating presolve.
Tried aggregator 1 time.
MIP Presolve eliminated 0 rows and 1766 columns.
Aggregator did 3 substitutions.
Reduced MIP has 507 rows, 3232 columns, and 6472 nonzeros.
Tried aggregator 1 time.
Represolve time =    0.11 sec.
Clique table members: 497.
MIP emphasis: balance optimality and feasibility.
MIP search method: dynamic search.
Parallel mode: none, using 1 thread.
Root relaxation solution time =    0.06 sec.

        Nodes                                         Cuts/
   Node  Left     Objective  IInf  Best Integer     Best Node    ItCnt     Gap

      0     0      483.0000    17      489.0000      483.0000      471    1.23%
      0     2      483.0000    17      489.0000      483.0000      471    1.23%
    100    76      485.0000    20      489.0000      483.0000     5156    1.23%
    200   149      483.0000    20      489.0000      483.0000     9286    1.23%
*   230+  114                          486.0000      483.0000    10521    0.62%
    300   145      484.0000    18      486.0000      483.0000    15063    0.62%
    400   181      484.0000    15      486.0000      483.0000    21837    0.62%
    500   241    infeasible            486.0000      483.0000    26332    0.62%
    600   242    infeasible            486.0000      483.0000    31946    0.62%
    700   217      485.0000    22      486.0000      483.0000    36790    0.62%
*   734+  143                          485.0000      483.0000    37878    0.41%
    800   147      484.0000    20      485.0000      483.0000    41004    0.41%
    900   195      484.0000    27      485.0000      483.0000    45086    0.41%
*   934+   16                          484.0000      483.0000    47050    0.21%
   1000    22      483.0000    50      484.0000      483.0000    59388    0.21%
Elapsed time =  22.89 sec. (tree size =  0.02 MB, solutions = 9)

Cover cuts applied:  199
Mixed integer rounding cuts applied:  4
Gomory fractional cuts applied:  4

Solution pool: 9 solutions saved.

MIP - Integer optimal solution:  Objective = 4.8400000000e+002
Solution time =   27.98 sec.  Iterations = 79085  Nodes = 1075


Incumbent solution
Variable Name           Solution Value
Cmax                        484.000000
X_1_10                        1.000000
X_2_5                         1.000000
X_3_8                         1.000000
X_4_4                         1.000000
X_5_2                         1.000000
X_6_2                         1.000000
X_7_6                         1.000000
X_8_4                         1.000000
X_9_5                         1.000000
X_10_2                        1.000000
X_11_9                        1.000000
X_12_3                        1.000000
X_13_6                        1.000000
X_14_5                        1.000000
X_15_7                        1.000000
X_16_4                        1.000000
X_17_7                        1.000000
X_18_7                        1.000000
X_19_2                        1.000000
X_20_1                        1.000000
X_21_9                        1.000000
X_22_6                        1.000000
X_23_4                        1.000000
X_24_3                        1.000000
X_25_2                        1.000000
X_26_3                        1.000000
X_27_3                        1.000000
X_28_3                        1.000000
X_29_8                        1.000000
X_30_10                       1.000000
X_31_2                        1.000000
X_32_4                        1.000000
X_33_10                       1.000000
X_34_10                       1.000000
X_35_4                        1.000000
X_36_10                       1.000000
X_37_10                       1.000000
X_38_8                        1.000000
X_39_5                        1.000000
X_40_3                        1.000000
X_41_6                        1.000000
X_42_8                        1.000000
X_43_2                        1.000000
X_44_3                        1.000000
X_45_9                        1.000000
X_46_9                        1.000000
X_47_8                        1.000000
X_48_6                        1.000000
X_49_5                        1.000000
X_50_4                        1.000000
X_51_8                        1.000000
X_52_1                        1.000000
X_53_5                        1.000000
X_54_6                        1.000000
X_55_6                        1.000000
X_56_2                        1.000000
X_57_5                        1.000000
X_58_4                        1.000000
X_59_1                        1.000000
X_60_3                        1.000000
X_61_9                        1.000000
X_62_2                        1.000000
X_63_5                        1.000000
X_64_8                        1.000000
X_65_1                        1.000000
X_66_7                        1.000000
X_67_1                        1.000000
X_68_6                        1.000000
X_69_10                       1.000000
X_70_9                        1.000000
X_71_3                        1.000000
X_72_7                        1.000000
X_73_10                       1.000000
X_74_9                        1.000000
X_75_5                        1.000000
X_76_10                       1.000000
X_77_8                        1.000000
X_78_9                        1.000000
X_79_4                        1.000000
X_80_10                       1.000000
X_81_7                        1.000000
X_82_2                        1.000000
X_83_2                        1.000000
X_84_4                        1.000000
X_85_9                        1.000000
X_86_9                        1.000000
X_87_4                        1.000000
X_88_4                        1.000000
X_89_5                        1.000000
X_90_3                        1.000000
X_91_9                        1.000000
X_92_6                        1.000000
X_93_10                       1.000000
X_94_7                        1.000000
X_95_10                       1.000000
X_96_6                        1.000000
X_97_2                        1.000000
X_98_1                        1.000000
X_99_9                        1.000000
X_100_7                       1.000000
X_101_7                       1.000000
X_102_1                       1.000000
X_103_2                       1.000000
X_104_9                       1.000000
X_105_8                       1.000000
X_106_3                       1.000000
X_107_9                       1.000000
X_108_3                       1.000000
X_109_10                      1.000000
X_110_8                       1.000000
X_111_10                      1.000000
X_112_1                       1.000000
X_113_4                       1.000000
X_114_8                       1.000000
X_115_8                       1.000000
X_116_3                       1.000000
X_117_6                       1.000000
X_118_1                       1.000000
X_119_3                       1.000000
X_120_5                       1.000000
X_121_3                       1.000000
X_122_7                       1.000000
X_123_6                       1.000000
X_124_1                       1.000000
X_125_8                       1.000000
X_126_10                      1.000000
X_127_1                       1.000000
X_128_5                       1.000000
X_129_3                       1.000000
X_130_7                       1.000000
X_131_4                       1.000000
X_132_7                       1.000000
X_133_4                       1.000000
X_134_7                       1.000000
X_135_3                       1.000000
X_136_10                      1.000000
X_137_9                       1.000000
X_138_6                       1.000000
X_139_1                       1.000000
X_140_6                       1.000000
X_141_1                       1.000000
X_142_2                       1.000000
X_143_6                       1.000000
X_144_10                      1.000000
X_145_5                       1.000000
X_146_2                       1.000000
X_147_2                       1.000000
X_148_5                       1.000000
X_149_1                       1.000000
X_150_1                       1.000000
X_151_10                      1.000000
X_152_6                       1.000000
X_153_6                       1.000000
X_154_10                      1.000000
X_155_10                      1.000000
X_156_3                       1.000000
X_157_8                       1.000000
X_158_10                      1.000000
X_159_10                      1.000000
X_160_10                      1.000000
X_161_10                      1.000000
X_162_8                       1.000000
X_163_10                      1.000000
X_164_9                       1.000000
X_165_8                       1.000000
X_166_9                       1.000000
X_167_2                       1.000000
X_168_7                       1.000000
X_169_1                       1.000000
X_170_5                       1.000000
X_171_2                       1.000000
X_172_2                       1.000000
X_173_6                       1.000000
X_174_7                       1.000000
X_175_4                       1.000000
X_176_9                       1.000000
X_177_8                       1.000000
X_178_6                       1.000000
X_179_5                       1.000000
X_180_9                       1.000000
X_181_10                      1.000000
X_182_3                       1.000000
X_183_6                       1.000000
X_184_2                       1.000000
X_185_8                       1.000000
X_186_4                       1.000000
X_187_9                       1.000000
X_188_6                       1.000000
X_189_7                       1.000000
X_190_9                       1.000000
X_191_1                       1.000000
X_192_4                       1.000000
X_193_3                       1.000000
X_194_7                       1.000000
X_195_3                       1.000000
X_196_1                       1.000000
X_197_7                       1.000000
X_198_5                       1.000000
X_199_1                       1.000000
X_200_3                       1.000000
X_201_7                       1.000000
X_202_3                       1.000000
X_203_4                       1.000000
X_204_7                       1.000000
X_205_4                       1.000000
X_206_10                      1.000000
X_207_10                      1.000000
X_208_4                       1.000000
X_209_2                       1.000000
X_210_9                       1.000000
X_211_1                       1.000000
X_212_6                       1.000000
X_213_9                       1.000000
X_214_9                       1.000000
X_215_4                       1.000000
X_216_10                      1.000000
X_217_7                       1.000000
X_218_1                       1.000000
X_219_7                       1.000000
X_220_1                       1.000000
X_221_4                       1.000000
X_222_2                       1.000000
X_223_1                       1.000000
X_224_9                       1.000000
X_225_3                       1.000000
X_226_1                       1.000000
X_227_9                       1.000000
X_228_4                       1.000000
X_229_4                       1.000000
X_230_7                       1.000000
X_231_7                       1.000000
X_232_6                       1.000000
X_233_3                       1.000000
X_234_9                       1.000000
X_235_7                       1.000000
X_236_5                       1.000000
X_237_9                       1.000000
X_238_5                       1.000000
X_239_9                       1.000000
X_240_6                       1.000000
X_241_8                       1.000000
X_242_10                      1.000000
X_243_4                       1.000000
X_244_8                       1.000000
X_245_2                       1.000000
X_246_9                       1.000000
X_247_9                       1.000000
X_248_4                       1.000000
X_249_5                       1.000000
X_250_10                      1.000000
X_251_4                       1.000000
X_252_4                       1.000000
X_253_7                       1.000000
X_254_4                       1.000000
X_255_2                       1.000000
X_256_8                       1.000000
X_257_4                       1.000000
X_258_2                       1.000000
X_259_10                      1.000000
X_260_3                       1.000000
X_261_3                       1.000000
X_262_4                       1.000000
X_263_6                       1.000000
X_264_7                       1.000000
X_265_2                       1.000000
X_266_10                      1.000000
X_267_8                       1.000000
X_268_4                       1.000000
X_269_8                       1.000000
X_270_7                       1.000000
X_271_5                       1.000000
X_272_6                       1.000000
X_273_4                       1.000000
X_274_1                       1.000000
X_275_5                       1.000000
X_276_2                       1.000000
X_277_5                       1.000000
X_278_6                       1.000000
X_279_3                       1.000000
X_280_6                       1.000000
X_281_2                       1.000000
X_282_2                       1.000000
X_283_9                       1.000000
X_284_1                       1.000000
X_285_1                       1.000000
X_286_4                       1.000000
X_287_10                      1.000000
X_288_1                       1.000000
X_289_9                       1.000000
X_290_8                       1.000000
X_291_7                       1.000000
X_292_1                       1.000000
X_293_2                       1.000000
X_294_2                       1.000000
X_295_8                       1.000000
X_296_9                       1.000000
X_297_8                       1.000000
X_298_10                      1.000000
X_299_10                      1.000000
X_300_7                       1.000000
X_301_1                       1.000000
X_302_3                       1.000000
X_303_4                       1.000000
X_304_1                       1.000000
X_305_6                       1.000000
X_306_1                       1.000000
X_307_9                       1.000000
X_308_8                       1.000000
X_309_5                       1.000000
X_310_6                       1.000000
X_311_3                       1.000000
X_312_2                       1.000000
X_313_7                       1.000000
X_314_6                       1.000000
X_315_3                       1.000000
X_316_6                       1.000000
X_317_1                       1.000000
X_318_9                       1.000000
X_319_4                       1.000000
X_320_4                       1.000000
X_321_2                       1.000000
X_322_7                       1.000000
X_323_8                       1.000000
X_324_8                       1.000000
X_325_9                       1.000000
X_326_5                       1.000000
X_327_8                       1.000000
X_328_3                       1.000000
X_329_3                       1.000000
X_330_6                       1.000000
X_331_10                      1.000000
X_332_5                       1.000000
X_333_3                       1.000000
X_334_8                       1.000000
X_335_5                       1.000000
X_336_4                       1.000000
X_337_1                       1.000000
X_338_10                      1.000000
X_339_3                       1.000000
X_340_2                       1.000000
X_341_8                       1.000000
X_342_1                       1.000000
X_343_4                       1.000000
X_344_3                       1.000000
X_345_6                       1.000000
X_346_2                       1.000000
X_347_10                      1.000000
X_348_8                       1.000000
X_349_1                       1.000000
X_350_7                       1.000000
X_351_9                       1.000000
X_352_3                       1.000000
X_353_8                       1.000000
X_354_10                      1.000000
X_355_2                       1.000000
X_356_3                       1.000000
X_357_2                       1.000000
X_358_3                       1.000000
X_359_9                       1.000000
X_360_7                       1.000000
X_361_1                       1.000000
X_362_5                       1.000000
X_363_3                       1.000000
X_364_3                       1.000000
X_365_5                       1.000000
X_366_2                       1.000000
X_367_7                       1.000000
X_368_7                       1.000000
X_369_7                       1.000000
X_370_4                       1.000000
X_371_2                       1.000000
X_372_7                       1.000000
X_373_9                       1.000000
X_374_5                       1.000000
X_375_5                       1.000000
X_376_8                       1.000000
X_377_6                       1.000000
X_378_9                       1.000000
X_379_6                       1.000000
X_380_1                       1.000000
X_381_7                       1.000000
X_382_6                       1.000000
X_383_4                       1.000000
X_384_6                       1.000000
X_385_3                       1.000000
X_386_5                       1.000000
X_387_9                       1.000000
X_388_10                      1.000000
X_389_2                       1.000000
X_390_6                       1.000000
X_391_4                       1.000000
X_392_10                      1.000000
X_393_10                      1.000000
X_394_5                       1.000000
X_395_3                       1.000000
X_396_2                       1.000000
X_397_8                       1.000000
X_398_1                       1.000000
X_399_3                       1.000000
X_400_7                       1.000000
X_401_5                       1.000000
X_402_6                       1.000000
X_403_9                       1.000000
X_404_1                       1.000000
X_405_9                       1.000000
X_406_10                      1.000000
X_407_2                       1.000000
X_408_5                       1.000000
X_409_4                       1.000000
X_410_2                       1.000000
X_411_2                       1.000000
X_412_1                       1.000000
X_413_5                       1.000000
X_414_9                       1.000000
X_415_4                       1.000000
X_416_9                       1.000000
X_417_1                       1.000000
X_418_2                       1.000000
X_419_1                       1.000000
X_420_4                       1.000000
X_421_7                       1.000000
X_422_4                       1.000000
X_423_4                       1.000000
X_424_9                       1.000000
X_425_7                       1.000000
X_426_5                       1.000000
X_427_4                       1.000000
X_428_8                       1.000000
X_429_6                       1.000000
X_430_6                       1.000000
X_431_9                       1.000000
X_432_4                       1.000000
X_433_8                       1.000000
X_434_8                       1.000000
X_435_8                       1.000000
X_436_4                       1.000000
X_437_4                       1.000000
X_438_6                       1.000000
X_439_9                       1.000000
X_440_4                       1.000000
X_441_3                       1.000000
X_442_5                       1.000000
X_443_3                       1.000000
X_444_1                       1.000000
X_445_5                       1.000000
X_446_4                       1.000000
X_447_6                       1.000000
X_448_7                       1.000000
X_449_3                       1.000000
X_450_7                       1.000000
X_451_1                       1.000000
X_452_8                       1.000000
X_453_10                      1.000000
X_454_2                       1.000000
X_455_4                       1.000000
X_456_10                      1.000000
X_457_7                       1.000000
X_458_7                       1.000000
X_459_8                       1.000000
X_460_10                      1.000000
X_461_4                       1.000000
X_462_5                       1.000000
X_463_6                       1.000000
X_464_9                       1.000000
X_465_10                      1.000000
X_466_3                       1.000000
X_467_10                      1.000000
X_468_8                       1.000000
X_469_7                       1.000000
X_470_9                       1.000000
X_471_5                       1.000000
X_472_8                       1.000000
X_473_1                       1.000000
X_474_9                       1.000000
X_475_7                       1.000000
X_476_4                       1.000000
X_477_6                       1.000000
X_478_7                       1.000000
X_479_2                       1.000000
X_480_4                       1.000000
X_481_5                       1.000000
X_482_10                      1.000000
X_483_5                       1.000000
X_484_8                       1.000000
X_485_2                       1.000000
X_486_1                       1.000000
X_487_5                       1.000000
X_488_9                       1.000000
X_489_10                      1.000000
X_490_3                       1.000000
X_491_8                       1.000000
X_492_7                       1.000000
X_493_10                      1.000000
X_494_6                       1.000000
X_495_9                       1.000000
X_496_7                       1.000000
X_497_6                       1.000000
X_498_10                      1.000000
X_499_1                       1.000000
X_500_8                       1.000000
All other variables in the range 1-5001 are 0.
